0 0 0 0
0 1 0 0
0 2 0 0
0 3 0 0
0 4 0 1
0 5 0 5
0 6 0 5
0 7 0 11
0 8 0 10
0 9 1 14
0 10 0 11
0 11 1 17
0 12 0 11
0 13 1 19
0 14 0 21
0 15 0 17
0 16 1 3
0 17 2 5
0 18 0 15
0 19 1 19
0 20 2 14
0 21 0 20
0 22 1 23
0 23 0 19
0 24 0 26
0 25 1 15
0 26 0 24
0 27 0 21
0 28 0 26
0 29 0 26
0 30 0 29
0 31 0 32
